benchmarks/bfuzz0/166131344017158256609468132541136120920.smt2
(set-logic QF_FP)
(declare-const x0 (_ FloatingPoint 11 53))
(declare-const x1 (_ FloatingPoint 11 53))
(declare-const x2 (_ FloatingPoint 11 53))
(declare-const x3 (_ FloatingPoint 11 53))
(declare-const x4 (_ FloatingPoint 11 53))
(declare-const x5 (_ FloatingPoint 11 53))
(declare-const x6 (_ FloatingPoint 11 53))
(declare-const x7 (_ FloatingPoint 11 53))
(declare-const x8 (_ FloatingPoint 11 53))
(declare-const x9 (_ FloatingPoint 11 53))
(declare-const x10 (_ FloatingPoint 11 53))
(assert (fp.leq (fp.neg (fp.div RNE (fp.div RNE x1 x1) (fp.mul RNE x9 x9))) (fp.div RNE (fp.div RNE (fp.mul RNE x7 x4) (fp.neg x5)) (fp.neg (fp.add RNE x5 x4)))))
(assert (fp.gt (fp.mul RNE (fp.div RNE (fp.neg x2) (fp.mul RNE x3 x7)) (fp.neg (fp.div RNE x1 x7))) (fp.add RNE (fp.neg (fp.add RNE x3 x3)) (fp.mul RNE (fp.add RNE x9 x3) (fp.mul RNE x9 x4)))))
(assert (fp.lt (fp.div RNE (fp.mul RNE (fp.sub RNE x2 x4) (fp.add RNE x9 x0)) (fp.mul RNE (fp.add RNE x7 x8) (fp.mul RNE x2 x9))) (fp.add RNE (fp.neg (fp.neg x7)) (fp.neg (fp.neg x0)))))
(assert (fp.lt (fp.div RNE (fp.sub RNE (fp.div RNE x8 x4) (fp.mul RNE x0 x3)) (fp.neg (fp.mul RNE x6 x2))) (fp.add RNE (fp.add RNE (fp.neg x10) (fp.mul RNE x4 x7)) (fp.sub RNE (fp.div RNE x1 x2) (fp.neg x5)))))
(assert (fp.lt (fp.div RNE (fp.neg (fp.div RNE x0 x1)) (fp.neg (fp.div RNE x1 x9))) (fp.mul RNE (fp.sub RNE (fp.mul RNE x5 x6) (fp.mul RNE x10 x4)) (fp.mul RNE (fp.mul RNE x7 x4) (fp.div RNE x10 x7)))))
(assert (fp.lt (fp.neg (fp.add RNE (fp.add RNE x9 x3) (fp.sub RNE x5 x9))) (fp.neg (fp.add RNE (fp.add RNE x8 x4) (fp.div RNE x1 x10)))))
(assert (fp.gt (fp.neg (fp.div RNE (fp.add RNE x7 x6) (fp.div RNE x8 x7))) (fp.div RNE (fp.neg (fp.div RNE x2 x10)) (fp.add RNE (fp.sub RNE x1 x2) (fp.mul RNE x5 x8)))))
(check-sat)
