db/data/166131344017158256609468132541136120920.z3.out
-------------------
2500.129472791
